presolving:
(round 1, fast)       14686 del vars, 476 del conss, 0 add conss, 168 chg bounds, 0 chg sides, 0 chg coeffs, 0 upgd conss, 0 impls, 6020 clqs
(round 2, fast)       29302 del vars, 14924 del conss, 0 add conss, 168 chg bounds, 0 chg sides, 0 chg coeffs, 0 upgd conss, 0 impls, 6020 clqs
   (0.4s) running MILP presolver
   (0.4s) MILP presolver found nothing
(round 3, exhaustive) 29302 del vars, 14924 del conss, 0 add conss, 168 chg bounds, 0 chg sides, 0 chg coeffs, 87 upgd conss, 0 impls, 6020 clqs
(round 4, exhaustive) 29302 del vars, 14924 del conss, 0 add conss, 168 chg bounds, 0 chg sides, 0 chg coeffs, 6107 upgd conss, 0 impls, 6020 clqs
   (0.6s) probing: 51/6090 (0.8%) - 0 fixings, 0 aggregations, 0 implications, 0 bound changes
   (0.6s) probing aborted: 50/50 successive totally useless probings
   (0.6s) symmetry computation started: requiring (bin +, int -, cont +), (fixed: bin -, int +, cont -)
   (0.7s) no symmetry present
presolving (5 rounds: 5 fast, 3 medium, 3 exhaustive):
 29302 deleted vars, 14924 deleted constraints, 0 added constraints, 168 tightened bounds, 0 added holes, 0 changed sides, 0 changed coefficients
 0 implications, 6020 cliques
presolved problem has 6090 variables (6090 bin, 0 int, 0 impl, 0 cont) and 6107 constraints
      1 constraints of type <knapsack>
   6020 constraints of type <setppc>
     86 constraints of type <logicor>
transformed objective value is always integral (scale: 1)
Presolving Time: 0.55

 time | node  | left  |LP iter|LP it/n|mem/heur|mdpt |vars |cons |rows |cuts |sepa|confs|strbr|  dualbound   | primalbound  |  gap   | compl. 
p 0.8s|     1 |     0 |     0 |     - |  clique|   0 |6090 |6107 |6107 |   0 |  0 |   0 |   0 | 0.000000e+00 | 5.039000e+03 |    Inf | unknown
  1.9s|     1 |     0 |  4833 |     - |   107M |   0 |6090 |6107 |6107 |   0 |  0 |   0 |   0 | 4.088551e+03 | 5.039000e+03 |  23.25%| unknown
  5.0s|     1 |     0 |  5261 |     - |   114M |   0 |6090 |6107 |6108 |   1 |  1 |   0 |   0 | 4.095083e+03 | 5.039000e+03 |  23.05%| unknown
  5.5s|     1 |     0 |  5706 |     - |   115M |   0 |6090 |6107 |6111 |   4 |  2 |   0 |   0 | 4.098538e+03 | 5.039000e+03 |  22.95%| unknown
  6.1s|     1 |     0 |  6000 |     - |   116M |   0 |6090 |6107 |6113 |   6 |  3 |   0 |   0 | 4.101483e+03 | 5.039000e+03 |  22.86%| unknown
  6.8s|     1 |     0 |  6460 |     - |   117M |   0 |6090 |6107 |6115 |   8 |  4 |   0 |   0 | 4.104404e+03 | 5.039000e+03 |  22.77%| unknown
  7.4s|     1 |     0 |  6629 |     - |   118M |   0 |6090 |6107 |6116 |   9 |  5 |   0 |   0 | 4.105448e+03 | 5.039000e+03 |  22.74%| unknown
  8.1s|     1 |     0 |  6878 |     - |   119M |   0 |6090 |6107 |6117 |  10 |  6 |   0 |   0 | 4.106636e+03 | 5.039000e+03 |  22.70%| unknown
  8.7s|     1 |     0 |  7074 |     - |   120M |   0 |6090 |6107 |6118 |  11 |  7 |   0 |   0 | 4.107556e+03 | 5.039000e+03 |  22.68%| unknown
  9.5s|     1 |     0 |  7362 |     - |   121M |   0 |6090 |6107 |6119 |  12 |  8 |   0 |   0 | 4.108529e+03 | 5.039000e+03 |  22.65%| unknown
 10.2s|     1 |     0 |  7530 |     - |   122M |   0 |6090 |6107 |6120 |  13 |  9 |   0 |   0 | 4.109484e+03 | 5.039000e+03 |  22.62%| unknown
 10.8s|     1 |     0 |  7699 |     - |   123M |   0 |6090 |6107 |6121 |  14 | 10 |   0 |   0 | 4.110589e+03 | 5.039000e+03 |  22.59%| unknown
 11.0s|     1 |     0 |  7828 |     - |   124M |   0 |6090 |6107 |6122 |  15 | 11 |   0 |   0 | 4.111316e+03 | 5.039000e+03 |  22.56%| unknown
 11.3s|     1 |     0 |  8046 |     - |   125M |   0 |6090 |6107 |6123 |  16 | 12 |   0 |   0 | 4.112148e+03 | 5.039000e+03 |  22.54%| unknown
 11.8s|     1 |     0 |  8887 |     - |   126M |   0 |6090 |6107 |6125 |  18 | 13 |   0 |   0 | 4.115371e+03 | 5.039000e+03 |  22.44%| unknown
 time | node  | left  |LP iter|LP it/n|mem/heur|mdpt |vars |cons |rows |cuts |sepa|confs|strbr|  dualbound   | primalbound  |  gap   | compl. 
 12.1s|     1 |     0 |  9141 |     - |   127M |   0 |6090 |6107 |6126 |  19 | 14 |   0 |   0 | 4.116419e+03 | 5.039000e+03 |  22.41%| unknown
 12.4s|     1 |     0 |  9348 |     - |   130M |   0 |6090 |6107 |6127 |  20 | 15 |   0 |   0 | 4.117568e+03 | 5.039000e+03 |  22.38%| unknown
 12.7s|     1 |     0 |  9588 |     - |   130M |   0 |6090 |6107 |6128 |  21 | 16 |   0 |   0 | 4.118315e+03 | 5.039000e+03 |  22.36%| unknown
 13.0s|     1 |     0 |  9987 |     - |   132M |   0 |6090 |6107 |6130 |  23 | 17 |   0 |   0 | 4.120980e+03 | 5.039000e+03 |  22.28%| unknown
 13.4s|     1 |     0 | 10150 |     - |   135M |   0 |6090 |6107 |6131 |  24 | 18 |   0 |   0 | 4.121475e+03 | 5.039000e+03 |  22.26%| unknown
 13.7s|     1 |     0 | 10417 |     - |   136M |   0 |6090 |6107 |6132 |  25 | 19 |   0 |   0 | 4.122587e+03 | 5.039000e+03 |  22.23%| unknown
 14.0s|     1 |     0 | 10736 |     - |   137M |   0 |6090 |6107 |6133 |  26 | 20 |   0 |   0 | 4.124823e+03 | 5.039000e+03 |  22.16%| unknown
d17.9s|     1 |     0 | 20437 |     - |farkasdi|   0 |6090 |6107 |6133 |   0 | 22 |   0 |   0 | 4.124823e+03 | 4.390000e+03 |   6.43%| unknown
 22.2s|     1 |     0 | 25877 |     - |   139M |   0 |6090 |6107 |6133 |  26 | 22 |   0 |   0 | 4.124823e+03 | 4.390000e+03 |   6.43%| unknown
 22.2s|     1 |     0 | 25877 |     - |   140M |   0 |6090 |6107 |5408 |  26 | 22 |   0 |   0 | 4.124823e+03 | 4.390000e+03 |   6.43%| unknown
 22.3s|     1 |     0 | 25877 |     - |   140M |   0 |6090 |5382 |5408 |  26 | 23 |   0 |   0 | 4.124823e+03 | 4.390000e+03 |   6.43%| unknown
(run 1, node 1) restarting after 1289 global fixings of integer variables

(restart) converted 26 cuts from the global cut pool into linear constraints

presolving:
(round 1, fast)       1289 del vars, 0 del conss, 0 add conss, 0 chg bounds, 0 chg sides, 1275 chg coeffs, 0 upgd conss, 0 impls, 4745 clqs
   (22.4s) running MILP presolver
   (22.5s) MILP presolver found nothing
(round 2, exhaustive) 1289 del vars, 0 del conss, 0 add conss, 0 chg bounds, 0 chg sides, 1275 chg coeffs, 25 upgd conss, 0 impls, 4745 clqs
presolving (3 rounds: 3 fast, 2 medium, 2 exhaustive):
 1289 deleted vars, 0 deleted constraints, 0 added constraints, 0 tightened bounds, 0 added holes, 0 changed sides, 1276 changed coefficients
 0 implications, 4745 cliques
presolved problem has 4801 variables (4801 bin, 0 int, 0 impl, 0 cont) and 4858 constraints
     26 constraints of type <knapsack>
   4745 constraints of type <setppc>
      1 constraints of type <linear>
     86 constraints of type <logicor>
transformed objective value is always integral (scale: 1)
Presolving Time: 0.73
transformed 4/4 original solutions to the transformed problem space

 time | node  | left  |LP iter|LP it/n|mem/heur|mdpt |vars |cons |rows |cuts |sepa|confs|strbr|  dualbound   | primalbound  |  gap   | compl. 
 25.7s|     1 |     0 | 36693 |     - |   143M |   0 |4801 |4858 |4858 |   0 |  0 |   0 |   0 | 4.124823e+03 | 4.390000e+03 |   6.43%| unknown
 26.7s|     1 |     0 | 36881 |     - |   145M |   0 |4801 |4858 |4859 |   1 |  1 |   0 |   0 | 4.125746e+03 | 4.390000e+03 |   6.40%| unknown
 27.2s|     1 |     0 | 37080 |     - |   145M |   0 |4801 |4858 |4860 |   2 |  2 |   0 |   0 | 4.126803e+03 | 4.390000e+03 |   6.38%| unknown
 27.7s|     1 |     0 | 37168 |     - |   146M |   0 |4801 |4858 |4861 |   3 |  3 |   0 |   0 | 4.127200e+03 | 4.390000e+03 |   6.37%| unknown
 28.3s|     1 |     0 | 37283 |     - |   146M |   0 |4801 |4858 |4862 |   4 |  4 |   0 |   0 | 4.127614e+03 | 4.390000e+03 |   6.36%| unknown
 28.8s|     1 |     0 | 37349 |     - |   147M |   0 |4801 |4858 |4863 |   5 |  5 |   0 |   0 | 4.127798e+03 | 4.390000e+03 |   6.35%| unknown
 29.4s|     1 |     0 | 37595 |     - |   147M |   0 |4801 |4858 |4864 |   6 |  6 |   0 |   0 | 4.128495e+03 | 4.390000e+03 |   6.33%| unknown
 30.0s|     1 |     0 | 37751 |     - |   148M |   0 |4801 |4858 |4865 |   7 |  7 |   0 |   0 | 4.129030e+03 | 4.390000e+03 |   6.32%| unknown
 30.6s|     1 |     0 | 37813 |     - |   149M |   0 |4801 |4858 |4866 |   8 |  8 |   0 |   0 | 4.129150e+03 | 4.390000e+03 |   6.32%| unknown
 31.3s|     1 |     0 | 37908 |     - |   149M |   0 |4801 |4858 |4867 |   9 |  9 |   0 |   0 | 4.129248e+03 | 4.390000e+03 |   6.31%| unknown
 31.9s|     1 |     0 | 38047 |     - |   150M |   0 |4801 |4858 |4868 |  10 | 10 |   0 |   0 | 4.129447e+03 | 4.390000e+03 |   6.31%| unknown
 32.2s|     1 |     0 | 38197 |     - |   150M |   0 |4801 |4858 |4869 |  11 | 11 |   0 |   0 | 4.129576e+03 | 4.390000e+03 |   6.31%| unknown
 54.5s|     1 |     2 | 51940 |     - |   152M |   0 |4801 |4881 |4869 |  11 | 13 |  23 |  40 | 4.133109e+03 | 4.390000e+03 |   6.22%| unknown

SCIP Status        : problem is solved [optimal solution found]
Solving Time (sec) : 115.78
Solving Nodes      : 75 (total of 76 nodes in 2 runs)
Primal Bound       : +4.39000000000000e+03 (5 solutions)
Dual Bound         : +4.39000000000000e+03
Gap                : 0.00 %
Solve Status: optimal
Solve Time: 115.79 seconds
